0000000000000000
0001111111110000
0001111111111000
0001111111111000
0000000000111100
0000000000111100
0000000000011100
0000000000011100
0000000000011100
0000000000011100
0000000000011100
0000000000011100
0001111111111111
0001111111111111
0001111111111111
0000000000000000
